DATASET = "thpack7";
INSTANCE = "043";

WIDTH = 233;
HEIGHT = 220;
LENGTH = 587;

NO_OF_SHAPES = 20;
size = [|
  82,80,71 |
  66,37,27 |
  77,76,31 |
  100,56,38 |
  93,86,67 |
  89,76,30 |
  98,90,67 |
  87,52,42 |
  53,42,35 |
  116,53,36 |
  85,79,46 |
  106,91,24 |
  112,84,46 |
  89,56,47 |
  62,51,39 |
  69,67,50 |
  93,74,46 |
  74,48,35 |
  95,87,66 |
  84,54,30 |
|];

verticality = [|
  1,1,1 |
  0,1,1 |
  0,0,1 |
  0,1,1 |
  1,1,1 |
  0,0,1 |
  1,1,1 |
  0,1,1 |
  1,1,1 |
  0,1,1 |
  1,1,1 |
  0,0,1 |
  0,1,1 |
  1,1,1 |
  1,1,1 |
  1,1,1 |
  0,1,1 |
  0,1,1 |
  1,1,1 |
  0,1,1 |
|];

box_count = [
  7,
  5,
  3,
  2,
  3,
  3,
  6,
  2,
  5,
  3,
  2,
  4,
  10,
  7,
  3,
  8,
  5,
  2,
  10,
  6,
];
